num_features = 60;
num_usage_limits = 4;
num_plans = 4;
num_addons = 1;

features = ["cloudStorage","customBusinessEmail","mailbox","sharedCalendars","calendar","realTimeCollaboration","multiplatformFileAccess","fileStoring","stream","chat","onlineMeetings","microsoftSharePoint","guestMeetingsInvitations","emailSpamFilter","passwordPolicies","multifactorAuthetication","securityGroups","teamSchedulesAndTaskManagement","microsoftLists","microsoftForms","microsoftBookings","phoneAndOnlineSupport","technicalSupport","troubleshootingContent","uptimeGuarantee","microsoftWordWebApp","microsoftExcelWebApp","microsoftPowerPointWebApp","microsoftOneNoteWebApp","microsoftOutlookWebApp","microsoftWordMobileApp","microsoftExcelMobileApp","microsoftPowerPointMobileApp","microsoftOneNoteMobileApp","microsoftOutlookMobileApp","microsoftTeams","microsoftPlanner","microsoftWordDesktopApp","microsoftExcelDesktopApp","microsoftPowerPointDesktopApp","microsoftOneNoteDesktopApp","microsoftOutlookDesktopApp","microsoftPublisher","microsoftAccess","editorAI","copilot","microsoftLoop","editVideoTools","recordings","editionCollaboration","webinars","webinarInvitationManagement","webinarData","enterpriseGradeEndpointSecurity","emailThreatsProtection","informationRightsManagement","conditionalAccessDefinition","securityPoliciesApplication","dataEnvironmentManagement","remoteInformationRemoval"];
usage_limits = ["cloudStorageLimit","slaMaxUptime","mailboxMaxCapacity","webinarsMaxLimit"];
plans = ["APPS_FOR_BUSINESS","BUSINESS_BASIC","BUSINESS_STANDARD","BUSINESS_PREMIUM"];
addons = ["copilotAI"];

plans_prices = [9.9,7.2,15,26.4];
addons_prices = [30];

linked_features = array2d(USAGE_LIMITS, FEATURES, [
    % cloudStorageLimit
    1,0,0,0,0,0,0,0,0,0,0,0,0,0,0,0,0,0,0,0,0,0,0,0,0,0,0,0,0,0,0,0,0,0,0,0,0,0,0,0,0,0,0,0,0,0,0,0,0,0,0,0,0,0,0,0,0,0,0,0,
    % slaMaxUptime
    0,0,0,0,0,0,0,0,0,0,0,0,0,0,0,0,0,0,0,0,0,0,0,0,1,0,0,0,0,0,0,0,0,0,0,0,0,0,0,0,0,0,0,0,0,0,0,0,0,0,0,0,0,0,0,0,0,0,0,0,
    % mailboxMaxCapacity
    0,0,1,0,0,0,0,0,0,0,0,0,0,0,0,0,0,0,0,0,0,0,0,0,0,0,0,0,0,0,0,0,0,0,0,0,0,0,0,0,0,0,0,0,0,0,0,0,0,0,0,0,0,0,0,0,0,0,0,0,
    % webinarsMaxLimit
    0,0,0,0,0,0,0,0,0,1,1,0,0,0,0,0,0,0,0,0,0,0,0,0,0,0,0,0,0,0,0,0,0,0,0,0,0,0,0,0,0,0,0,0,0,0,0,0,0,0,1,0,0,0,0,0,0,0,0,0
]);

plans_features = array2d(PLANS, FEATURES, [
    % APPS_FOR_BUSINESS
    1,0,0,0,0,1,1,0,0,0,0,0,0,1,1,1,1,0,0,0,0,1,1,1,1,1,1,1,1,0,1,1,1,1,1,0,0,1,1,1,1,1,1,1,0,0,0,0,0,0,0,0,0,0,0,0,0,0,0,0,
    % BUSINESS_BASIC
    1,1,1,1,1,1,1,1,1,1,1,1,1,1,1,1,1,1,1,1,1,1,1,1,1,1,1,1,1,1,1,1,1,1,1,1,1,1,1,1,1,1,1,1,0,0,0,0,0,0,0,0,0,0,0,0,0,0,0,0,
    % BUSINESS_STANDARD
    1,1,1,1,1,1,1,1,1,1,1,1,1,1,1,1,1,1,1,1,1,1,1,1,1,1,1,1,1,1,1,1,1,1,1,1,1,1,1,1,1,1,1,1,1,0,1,1,1,1,1,1,1,0,0,0,0,0,0,0,
    % BUSINESS_PREMIUM
    1,1,1,1,1,1,1,1,1,1,1,1,1,1,1,1,1,1,1,1,1,1,1,1,1,1,1,1,1,1,1,1,1,1,1,1,1,1,1,1,1,1,1,1,1,0,1,1,1,1,1,1,1,1,1,1,1,1,1,1
]);
plans_usage_limits = array2d(PLANS, USAGE_LIMITS, [
    % APPS_FOR_BUSINESS
    1000,99,50,300,
    % BUSINESS_BASIC
    1000,99,50,300,
    % BUSINESS_STANDARD
    1000,99,50,300,
    % BUSINESS_PREMIUM
    1000,99,50,300
]);

addons_features = array2d(ADDONS, FEATURES, [
    % copilotAI
    0,0,0,0,0,0,0,0,0,0,0,0,0,0,0,0,0,0,0,0,0,0,0,0,0,0,0,0,0,0,0,0,0,0,0,0,0,0,0,0,0,0,0,0,0,1,0,0,0,0,0,0,0,0,0,0,0,0,0,0
]);
addons_usage_limits = array2d(ADDONS, USAGE_LIMITS, [
    % copilotAI
    0,0,0,0
]);
addons_usage_limits_extensions = array2d(ADDONS, USAGE_LIMITS, [
    % copilotAI
    0,0,0,0
]);
addons_available_for = array2d(ADDONS, PLANS, [
    % copilotAI
    1,1,1,1
]);
addons_depends_on = array2d(ADDONS, ADDONS, [
    % copilotAI
    0
]);
